\* GAP_Lagrangian_subproblem *\
Minimize
OBJ: 10 x_0_0 + 11 x_0_1 + 12 x_0_2 + 13 x_0_3 + 14 x_0_4 + 15 x_0_5
 + 16 x_0_6 + 17 x_0_7 + 22 x_1_0 + 24 x_1_1 + 26 x_1_2 + 28 x_1_3 + 30 x_1_4
 + 32 x_1_5 + 34 x_1_6 + 36 x_1_7 + 60 x_2_0 + 64 x_2_1 + 68 x_2_2 + 72 x_2_3
 + 76 x_2_4 + 80 x_2_5 + 84 x_2_6 + 88 x_2_7
Subject To
Cas0: x_0_0 + x_1_0 + x_2_0 = 1
Cas1: x_0_1 + x_1_1 + x_2_1 = 1
Cas2: x_0_2 + x_1_2 + x_2_2 = 1
Cas3: x_0_3 + x_1_3 + x_2_3 = 1
Cas4: x_0_4 + x_1_4 + x_2_4 = 1
Cas5: x_0_5 + x_1_5 + x_2_5 = 1
Cas6: x_0_6 + x_1_6 + x_2_6 = 1
Cas7: x_0_7 + x_1_7 + x_2_7 = 1
Binaries
x_0_0
x_0_1
x_0_2
x_0_3
x_0_4
x_0_5
x_0_6
x_0_7
x_1_0
x_1_1
x_1_2
x_1_3
x_1_4
x_1_5
x_1_6
x_1_7
x_2_0
x_2_1
x_2_2
x_2_3
x_2_4
x_2_5
x_2_6
x_2_7
End
